p cnf 264 1051
c p weight 10 -1 0
c p weight -10 1 0
c p weight 12 6.12323399573676603586882014729198302312846062338790031898128063403419218957424163818359375E-17 0
c p weight -12 1 0
c p weight 13 1 0
c p weight -13 1 0
c p weight 14 -1 0
c p weight -14 1 0
c p weight 16 -1 0
c p weight -16 1 0
c p weight 18 -1 0
c p weight -18 1 0
c p weight 20 6.12323399573676603586882014729198302312846062338790031898128063403419218957424163818359375E-17 0
c p weight -20 1 0
c p weight 21 1 0
c p weight -21 1 0
c p weight 22 -1 0
c p weight -22 1 0
c p weight 24 -1 0
c p weight -24 1 0
c p weight 27 -1 0
c p weight -27 1 0
c p weight 29 -0.00007372434514253458910475191867561761682736687362194061279296875 0
c p weight -29 1 0
c p weight 30 -0.99999999728236044216345135282608680427074432373046875 0
c p weight -30 1 0
c p weight 31 -1 0
c p weight -31 1 0
c p weight 34 -1 0
c p weight -34 1 0
c p weight 36 -1 0
c p weight -36 1 0
c p weight 38 6.12323399573676603586882014729198302312846062338790031898128063403419218957424163818359375E-17 0
c p weight -38 1 0
c p weight 39 1 0
c p weight -39 1 0
c p weight 40 -1 0
c p weight -40 1 0
c p weight 42 -1 0
c p weight -42 1 0
c p weight 45 -1 0
c p weight -45 1 0
c p weight 47 -0.00007372434514253458910475191867561761682736687362194061279296875 0
c p weight -47 1 0
c p weight 48 -0.99999999728236044216345135282608680427074432373046875 0
c p weight -48 1 0
c p weight 49 -1 0
c p weight -49 1 0
c p weight 52 -1 0
c p weight -52 1 0
c p weight 54 -1 0
c p weight -54 1 0
c p weight 56 6.12323399573676603586882014729198302312846062338790031898128063403419218957424163818359375E-17 0
c p weight -56 1 0
c p weight 57 1 0
c p weight -57 1 0
c p weight 58 -1 0
c p weight -58 1 0
c p weight 60 0.70734748011232539965931209735572338104248046875 0
c p weight -60 1 0
c p weight 61 -0.7068660002990265756039889311068691313266754150390625 0
c p weight -61 1 0
c p weight 62 -1 0
c p weight -62 1 0
c p weight 64 6.12323399573676603586882014729198302312846062338790031898128063403419218957424163818359375E-17 0
c p weight -64 1 0
c p weight 65 1 0
c p weight -65 1 0
c p weight 66 -1 0
c p weight -66 1 0
c p weight 68 3.0616169978683831411939265144290861071468186371292985459291458028019405901432037353515625E-16 0
c p weight -68 1 0
c p weight 69 1 0
c p weight -69 1 0
c p weight 70 -1 0
c p weight -70 1 0
c p weight 72 -1 0
c p weight -72 1 0
c p weight 74 6.12323399573676603586882014729198302312846062338790031898128063403419218957424163818359375E-17 0
c p weight -74 1 0
c p weight 75 1 0
c p weight -75 1 0
c p weight 76 -1 0
c p weight -76 1 0
c p weight 78 -1 0
c p weight -78 1 0
c p weight 81 -1 0
c p weight -81 1 0
c p weight 83 -0.00007372434514253458910475191867561761682736687362194061279296875 0
c p weight -83 1 0
c p weight 84 -0.99999999728236044216345135282608680427074432373046875 0
c p weight -84 1 0
c p weight 85 -1 0
c p weight -85 1 0
c p weight 88 -1 0
c p weight -88 1 0
c p weight 90 -1 0
c p weight -90 1 0
c p weight 92 6.12323399573676603586882014729198302312846062338790031898128063403419218957424163818359375E-17 0
c p weight -92 1 0
c p weight 93 1 0
c p weight -93 1 0
c p weight 94 -1 0
c p weight -94 1 0
c p weight 96 0.70734748011232539965931209735572338104248046875 0
c p weight -96 1 0
c p weight 97 -0.7068660002990265756039889311068691313266754150390625 0
c p weight -97 1 0
c p weight 98 -1 0
c p weight -98 1 0
c p weight 100 6.12323399573676603586882014729198302312846062338790031898128063403419218957424163818359375E-17 0
c p weight -100 1 0
c p weight 101 1 0
c p weight -101 1 0
c p weight 102 -1 0
c p weight -102 1 0
c p weight 104 3.0616169978683831411939265144290861071468186371292985459291458028019405901432037353515625E-16 0
c p weight -104 1 0
c p weight 105 1 0
c p weight -105 1 0
c p weight 106 -1 0
c p weight -106 1 0
c p weight 109 -1 0
c p weight -109 1 0
c p weight 111 0.70706413284293223586729482121882028877735137939453125 0
c p weight -111 1 0
c p weight 112 0.70714942695803151284650311936275102198123931884765625 0
c p weight -112 1 0
c p weight 113 -1 0
c p weight -113 1 0
c p weight 116 -1 0
c p weight -116 1 0
c p weight 119 -1 0
c p weight -119 1 0
c p weight 121 -0.00007372434514253458910475191867561761682736687362194061279296875 0
c p weight -121 1 0
c p weight 122 -0.99999999728236044216345135282608680427074432373046875 0
c p weight -122 1 0
c p weight 123 -1 0
c p weight -123 1 0
c p weight 126 -1 0
c p weight -126 1 0
c p weight 128 -1 0
c p weight -128 1 0
c p weight 130 6.12323399573676603586882014729198302312846062338790031898128063403419218957424163818359375E-17 0
c p weight -130 1 0
c p weight 131 1 0
c p weight -131 1 0
c p weight 132 -1 0
c p weight -132 1 0
c p weight 134 0.70734748011232539965931209735572338104248046875 0
c p weight -134 1 0
c p weight 135 -0.7068660002990265756039889311068691313266754150390625 0
c p weight -135 1 0
c p weight 136 -1 0
c p weight -136 1 0
c p weight 138 6.12323399573676603586882014729198302312846062338790031898128063403419218957424163818359375E-17 0
c p weight -138 1 0
c p weight 139 1 0
c p weight -139 1 0
c p weight 140 -1 0
c p weight -140 1 0
c p weight 142 3.0616169978683831411939265144290861071468186371292985459291458028019405901432037353515625E-16 0
c p weight -142 1 0
c p weight 143 1 0
c p weight -143 1 0
c p weight 144 -1 0
c p weight -144 1 0
c p weight 147 -1 0
c p weight -147 1 0
c p weight 149 0.70706413284293223586729482121882028877735137939453125 0
c p weight -149 1 0
c p weight 150 0.70714942695803151284650311936275102198123931884765625 0
c p weight -150 1 0
c p weight 151 -1 0
c p weight -151 1 0
c p weight 154 -1 0
c p weight -154 1 0
c p weight 156 -1 0
c p weight -156 1 0
c p weight 158 6.12323399573676603586882014729198302312846062338790031898128063403419218957424163818359375E-17 0
c p weight -158 1 0
c p weight 159 1 0
c p weight -159 1 0
c p weight 160 -1 0
c p weight -160 1 0
c p weight 162 0.00055937405874888841868231015297396879759617149829864501953125 0
c p weight -162 1 0
c p weight 163 0.9999998435503190119533201141166500747203826904296875 0
c p weight -163 1 0
c p weight 164 -1 0
c p weight -164 1 0
c p weight 166 6.12323399573676603586882014729198302312846062338790031898128063403419218957424163818359375E-17 0
c p weight -166 1 0
c p weight 167 1 0
c p weight -167 1 0
c p weight 168 -1 0
c p weight -168 1 0
c p weight 170 3.0616169978683831411939265144290861071468186371292985459291458028019405901432037353515625E-16 0
c p weight -170 1 0
c p weight 171 1 0
c p weight -171 1 0
c p weight 172 -1 0
c p weight -172 1 0
c p weight 174 -1 0
c p weight -174 1 0
c p weight 176 6.12323399573676603586882014729198302312846062338790031898128063403419218957424163818359375E-17 0
c p weight -176 1 0
c p weight 177 1 0
c p weight -177 1 0
c p weight 178 -1 0
c p weight -178 1 0
c p weight 180 0.70734748011232539965931209735572338104248046875 0
c p weight -180 1 0
c p weight 181 -0.7068660002990265756039889311068691313266754150390625 0
c p weight -181 1 0
c p weight 182 -1 0
c p weight -182 1 0
c p weight 184 6.12323399573676603586882014729198302312846062338790031898128063403419218957424163818359375E-17 0
c p weight -184 1 0
c p weight 185 1 0
c p weight -185 1 0
c p weight 186 -1 0
c p weight -186 1 0
c p weight 188 3.0616169978683831411939265144290861071468186371292985459291458028019405901432037353515625E-16 0
c p weight -188 1 0
c p weight 189 1 0
c p weight -189 1 0
c p weight 190 -1 0
c p weight -190 1 0
c p weight 193 -1 0
c p weight -193 1 0
c p weight 195 0.70706413284293223586729482121882028877735137939453125 0
c p weight -195 1 0
c p weight 196 0.70714942695803151284650311936275102198123931884765625 0
c p weight -196 1 0
c p weight 197 -1 0
c p weight -197 1 0
c p weight 200 -1 0
c p weight -200 1 0
c p weight 202 -1 0
c p weight -202 1 0
c p weight 204 6.12323399573676603586882014729198302312846062338790031898128063403419218957424163818359375E-17 0
c p weight -204 1 0
c p weight 205 1 0
c p weight -205 1 0
c p weight 206 -1 0
c p weight -206 1 0
c p weight 208 0.00055937405874888841868231015297396879759617149829864501953125 0
c p weight -208 1 0
c p weight 209 0.9999998435503190119533201141166500747203826904296875 0
c p weight -209 1 0
c p weight 210 -1 0
c p weight -210 1 0
c p weight 212 6.12323399573676603586882014729198302312846062338790031898128063403419218957424163818359375E-17 0
c p weight -212 1 0
c p weight 213 1 0
c p weight -213 1 0
c p weight 214 -1 0
c p weight -214 1 0
c p weight 216 3.0616169978683831411939265144290861071468186371292985459291458028019405901432037353515625E-16 0
c p weight -216 1 0
c p weight 217 1 0
c p weight -217 1 0
c p weight 218 -1 0
c p weight -218 1 0
c p weight 221 -1 0
c p weight -221 1 0
c p weight 223 0.70706413284293223586729482121882028877735137939453125 0
c p weight -223 1 0
c p weight 224 0.70714942695803151284650311936275102198123931884765625 0
c p weight -224 1 0
c p weight 225 -1 0
c p weight -225 1 0
c p weight 228 -1 0
c p weight -228 1 0
c p weight 230 -1 0
c p weight -230 1 0
c p weight 232 6.12323399573676603586882014729198302312846062338790031898128063403419218957424163818359375E-17 0
c p weight -232 1 0
c p weight 233 1 0
c p weight -233 1 0
c p weight 234 -1 0
c p weight -234 1 0
c p weight 236 0.00055937405874888841868231015297396879759617149829864501953125 0
c p weight -236 1 0
c p weight 237 0.9999998435503190119533201141166500747203826904296875 0
c p weight -237 1 0
c p weight 238 -1 0
c p weight -238 1 0
c p weight 240 6.12323399573676603586882014729198302312846062338790031898128063403419218957424163818359375E-17 0
c p weight -240 1 0
c p weight 241 1 0
c p weight -241 1 0
c p weight 242 -1 0
c p weight -242 1 0
c p weight 244 3.0616169978683831411939265144290861071468186371292985459291458028019405901432037353515625E-16 0
c p weight -244 1 0
c p weight 245 1 0
c p weight -245 1 0
c p weight 246 -1 0
c p weight -246 1 0
c p weight 248 -1 0
c p weight -248 1 0
c p weight 250 6.12323399573676603586882014729198302312846062338790031898128063403419218957424163818359375E-17 0
c p weight -250 1 0
c p weight 251 1 0
c p weight -251 1 0
c p weight 252 -1 0
c p weight -252 1 0
c p weight 254 0.00055937405874888841868231015297396879759617149829864501953125 0
c p weight -254 1 0
c p weight 255 0.9999998435503190119533201141166500747203826904296875 0
c p weight -255 1 0
c p weight 256 -1 0
c p weight -256 1 0
c p weight 258 6.12323399573676603586882014729198302312846062338790031898128063403419218957424163818359375E-17 0
c p weight -258 1 0
c p weight 259 1 0
c p weight -259 1 0
c p weight 260 -1 0
c p weight -260 1 0
c p weight 262 3.0616169978683831411939265144290861071468186371292985459291458028019405901432037353515625E-16 0
c p weight -262 1 0
c p weight 263 1 0
c p weight -263 1 0
c p weight 264 -1 0
c p weight -264 1 0
-7 0
-5 0
-3 0
-1 0
9 1 -2 0
9 -1 2 0
-9 1 2 0
-9 -1 -2 0
-10 1 0
-10 2 0
10 -1 -2 0
11 -1 9 0
-11 1 9 0
-12 9 0
11 -12 -1 0
-11 -12 1 0
11 12 1 -9 0
-11 12 -1 -9 0
-13 9 0
11 -13 1 0
-11 -13 -1 0
11 13 -1 -9 0
-11 13 1 -9 0
-14 11 0
-14 9 0
-14 -1 0
14 -11 1 -9 0
15 11 -9 0
15 -11 9 0
-15 11 9 0
-15 -11 -9 0
-16 11 0
-16 9 0
16 -11 -9 0
17 3 -4 0
17 -3 4 0
-17 3 4 0
-17 -3 -4 0
-18 3 0
-18 4 0
18 -3 -4 0
19 -3 17 0
-19 3 17 0
-20 17 0
19 -20 -3 0
-19 -20 3 0
19 20 3 -17 0
-19 20 -3 -17 0
-21 17 0
19 -21 3 0
-19 -21 -3 0
19 21 -3 -17 0
-19 21 3 -17 0
-22 19 0
-22 17 0
-22 -3 0
22 -19 3 -17 0
23 19 -17 0
23 -19 17 0
-23 19 17 0
-23 -19 -17 0
-24 19 0
-24 17 0
24 -19 -17 0
25 11 -19 0
25 -11 19 0
-25 11 19 0
-25 -11 -19 0
26 15 -23 0
26 -15 23 0
-26 15 23 0
-26 -15 -23 0
-27 11 0
-27 23 0
-27 19 -15 0
-27 -19 15 0
27 -11 19 15 -23 0
27 -11 -19 -15 -23 0
28 25 -23 0
-28 25 23 0
-29 25 0
28 -29 -23 0
-28 -29 23 0
28 29 -25 23 0
-28 29 -25 -23 0
-30 25 0
28 -30 23 0
-28 -30 -23 0
28 30 -25 -23 0
-28 30 -25 23 0
-31 25 0
-31 23 0
-31 -28 0
31 28 -25 -23 0
32 11 -25 0
32 -11 25 0
-32 11 25 0
-32 -11 -25 0
33 26 -28 0
33 -26 28 0
-33 26 28 0
-33 -26 -28 0
-34 11 0
-34 28 0
-34 25 -26 0
-34 -25 26 0
34 -11 25 26 -28 0
34 -11 -25 -26 -28 0
35 5 -6 0
35 -5 6 0
-35 5 6 0
-35 -5 -6 0
-36 5 0
-36 6 0
36 -5 -6 0
37 -5 35 0
-37 5 35 0
-38 35 0
37 -38 -5 0
-37 -38 5 0
37 38 5 -35 0
-37 38 -5 -35 0
-39 35 0
37 -39 5 0
-37 -39 -5 0
37 39 -5 -35 0
-37 39 5 -35 0
-40 37 0
-40 35 0
-40 -5 0
40 -37 5 -35 0
41 37 -35 0
41 -37 35 0
-41 37 35 0
-41 -37 -35 0
-42 37 0
-42 35 0
42 -37 -35 0
43 11 -37 0
43 -11 37 0
-43 11 37 0
-43 -11 -37 0
44 33 -41 0
44 -33 41 0
-44 33 41 0
-44 -33 -41 0
-45 11 0
-45 41 0
-45 37 -33 0
-45 -37 33 0
45 -11 37 33 -41 0
45 -11 -37 -33 -41 0
46 43 -41 0
-46 43 41 0
-47 43 0
46 -47 -41 0
-46 -47 41 0
46 47 -43 41 0
-46 47 -43 -41 0
-48 43 0
46 -48 41 0
-46 -48 -41 0
46 48 -43 -41 0
-46 48 -43 41 0
-49 43 0
-49 41 0
-49 -46 0
49 46 -43 -41 0
50 11 -43 0
50 -11 43 0
-50 11 43 0
-50 -11 -43 0
51 44 -46 0
51 -44 46 0
-51 44 46 0
-51 -44 -46 0
-52 11 0
-52 46 0
-52 43 -44 0
-52 -43 44 0
52 -11 43 44 -46 0
52 -11 -43 -44 -46 0
53 11 -51 0
53 -11 51 0
-53 11 51 0
-53 -11 -51 0
-54 11 0
-54 51 0
54 -11 -51 0
55 -11 53 0
-55 11 53 0
-56 53 0
55 -56 -11 0
-55 -56 11 0
55 56 11 -53 0
-55 56 -11 -53 0
-57 53 0
55 -57 11 0
-55 -57 -11 0
55 57 -11 -53 0
-55 57 11 -53 0
-58 55 0
-58 53 0
-58 -11 0
58 -55 11 -53 0
59 55 -53 0
-59 55 53 0
-60 55 0
59 -60 -53 0
-59 -60 53 0
59 60 -55 53 0
-59 60 -55 -53 0
-61 55 0
59 -61 53 0
-59 -61 -53 0
59 61 -55 -53 0
-59 61 -55 53 0
-62 55 0
-62 53 0
-62 -59 0
62 59 -55 -53 0
63 -55 59 0
-63 55 59 0
-64 59 0
63 -64 -55 0
-63 -64 55 0
63 64 55 -59 0
-63 64 -55 -59 0
-65 59 0
63 -65 55 0
-63 -65 -55 0
63 65 -55 -59 0
-63 65 55 -59 0
-66 63 0
-66 59 0
-66 -55 0
66 -63 55 -59 0
67 63 -59 0
-67 63 59 0
-68 63 0
67 -68 -59 0
-67 -68 59 0
67 68 -63 59 0
-67 68 -63 -59 0
-69 63 0
67 -69 59 0
-67 -69 -59 0
67 69 -63 -59 0
-67 69 -63 59 0
-70 63 0
-70 59 0
-70 -67 0
70 67 -63 -59 0
71 7 -8 0
71 -7 8 0
-71 7 8 0
-71 -7 -8 0
-72 7 0
-72 8 0
72 -7 -8 0
73 -7 71 0
-73 7 71 0
-74 71 0
73 -74 -7 0
-73 -74 7 0
73 74 7 -71 0
-73 74 -7 -71 0
-75 71 0
73 -75 7 0
-73 -75 -7 0
73 75 -7 -71 0
-73 75 7 -71 0
-76 73 0
-76 71 0
-76 -7 0
76 -73 7 -71 0
77 73 -71 0
77 -73 71 0
-77 73 71 0
-77 -73 -71 0
-78 73 0
-78 71 0
78 -73 -71 0
79 32 -73 0
79 -32 73 0
-79 32 73 0
-79 -32 -73 0
80 28 -77 0
80 -28 77 0
-80 28 77 0
-80 -28 -77 0
-81 32 0
-81 77 0
-81 73 -28 0
-81 -73 28 0
81 -32 73 28 -77 0
81 -32 -73 -28 -77 0
82 79 -77 0
-82 79 77 0
-83 79 0
82 -83 -77 0
-82 -83 77 0
82 83 -79 77 0
-82 83 -79 -77 0
-84 79 0
82 -84 77 0
-82 -84 -77 0
82 84 -79 -77 0
-82 84 -79 77 0
-85 79 0
-85 77 0
-85 -82 0
85 82 -79 -77 0
86 32 -79 0
86 -32 79 0
-86 32 79 0
-86 -32 -79 0
87 80 -82 0
87 -80 82 0
-87 80 82 0
-87 -80 -82 0
-88 32 0
-88 82 0
-88 79 -80 0
-88 -79 80 0
88 -32 79 80 -82 0
88 -32 -79 -80 -82 0
89 32 -87 0
89 -32 87 0
-89 32 87 0
-89 -32 -87 0
-90 32 0
-90 87 0
90 -32 -87 0
91 -32 89 0
-91 32 89 0
-92 89 0
91 -92 -32 0
-91 -92 32 0
91 92 32 -89 0
-91 92 -32 -89 0
-93 89 0
91 -93 32 0
-91 -93 -32 0
91 93 -32 -89 0
-91 93 32 -89 0
-94 91 0
-94 89 0
-94 -32 0
94 -91 32 -89 0
95 91 -89 0
-95 91 89 0
-96 91 0
95 -96 -89 0
-95 -96 89 0
95 96 -91 89 0
-95 96 -91 -89 0
-97 91 0
95 -97 89 0
-95 -97 -89 0
95 97 -91 -89 0
-95 97 -91 89 0
-98 91 0
-98 89 0
-98 -95 0
98 95 -91 -89 0
99 -91 95 0
-99 91 95 0
-100 95 0
99 -100 -91 0
-99 -100 91 0
99 100 91 -95 0
-99 100 -91 -95 0
-101 95 0
99 -101 91 0
-99 -101 -91 0
99 101 -91 -95 0
-99 101 91 -95 0
-102 99 0
-102 95 0
-102 -91 0
102 -99 91 -95 0
103 99 -95 0
-103 99 95 0
-104 99 0
103 -104 -95 0
-103 -104 95 0
103 104 -99 95 0
-103 104 -99 -95 0
-105 99 0
103 -105 95 0
-103 -105 -95 0
103 105 -99 -95 0
-103 105 -99 95 0
-106 99 0
-106 95 0
-106 -103 0
106 103 -99 -95 0
107 63 -99 0
107 -63 99 0
-107 63 99 0
-107 -63 -99 0
108 67 -103 0
108 -67 103 0
-108 67 103 0
-108 -67 -103 0
-109 63 0
-109 103 0
-109 99 -67 0
-109 -99 67 0
109 -63 99 67 -103 0
109 -63 -99 -67 -103 0
110 107 -103 0
-110 107 103 0
-111 107 0
110 -111 -103 0
-110 -111 103 0
110 111 -107 103 0
-110 111 -107 -103 0
-112 107 0
110 -112 103 0
-110 -112 -103 0
110 112 -107 -103 0
-110 112 -107 103 0
-113 107 0
-113 103 0
-113 -110 0
113 110 -107 -103 0
114 63 -107 0
114 -63 107 0
-114 63 107 0
-114 -63 -107 0
115 108 -110 0
115 -108 110 0
-115 108 110 0
-115 -108 -110 0
-116 63 0
-116 110 0
-116 107 -108 0
-116 -107 108 0
116 -63 107 108 -110 0
116 -63 -107 -108 -110 0
117 50 -86 0
117 -50 86 0
-117 50 86 0
-117 -50 -86 0
118 46 -82 0
118 -46 82 0
-118 46 82 0
-118 -46 -82 0
-119 50 0
-119 82 0
-119 86 -46 0
-119 -86 46 0
119 -50 86 46 -82 0
119 -50 -86 -46 -82 0
120 117 -82 0
-120 117 82 0
-121 117 0
120 -121 -82 0
-120 -121 82 0
120 121 -117 82 0
-120 121 -117 -82 0
-122 117 0
120 -122 82 0
-120 -122 -82 0
120 122 -117 -82 0
-120 122 -117 82 0
-123 117 0
-123 82 0
-123 -120 0
123 120 -117 -82 0
124 50 -117 0
124 -50 117 0
-124 50 117 0
-124 -50 -117 0
125 118 -120 0
125 -118 120 0
-125 118 120 0
-125 -118 -120 0
-126 50 0
-126 120 0
-126 117 -118 0
-126 -117 118 0
126 -50 117 118 -120 0
126 -50 -117 -118 -120 0
127 50 -125 0
127 -50 125 0
-127 50 125 0
-127 -50 -125 0
-128 50 0
-128 125 0
128 -50 -125 0
129 -50 127 0
-129 50 127 0
-130 127 0
129 -130 -50 0
-129 -130 50 0
129 130 50 -127 0
-129 130 -50 -127 0
-131 127 0
129 -131 50 0
-129 -131 -50 0
129 131 -50 -127 0
-129 131 50 -127 0
-132 129 0
-132 127 0
-132 -50 0
132 -129 50 -127 0
133 129 -127 0
-133 129 127 0
-134 129 0
133 -134 -127 0
-133 -134 127 0
133 134 -129 127 0
-133 134 -129 -127 0
-135 129 0
133 -135 127 0
-133 -135 -127 0
133 135 -129 -127 0
-133 135 -129 127 0
-136 129 0
-136 127 0
-136 -133 0
136 133 -129 -127 0
137 -129 133 0
-137 129 133 0
-138 133 0
137 -138 -129 0
-137 -138 129 0
137 138 129 -133 0
-137 138 -129 -133 0
-139 133 0
137 -139 129 0
-137 -139 -129 0
137 139 -129 -133 0
-137 139 129 -133 0
-140 137 0
-140 133 0
-140 -129 0
140 -137 129 -133 0
141 137 -133 0
-141 137 133 0
-142 137 0
141 -142 -133 0
-141 -142 133 0
141 142 -137 133 0
-141 142 -137 -133 0
-143 137 0
141 -143 133 0
-141 -143 -133 0
141 143 -137 -133 0
-141 143 -137 133 0
-144 137 0
-144 133 0
-144 -141 0
144 141 -137 -133 0
145 63 -137 0
145 -63 137 0
-145 63 137 0
-145 -63 -137 0
146 115 -141 0
146 -115 141 0
-146 115 141 0
-146 -115 -141 0
-147 63 0
-147 141 0
-147 137 -115 0
-147 -137 115 0
147 -63 137 115 -141 0
147 -63 -137 -115 -141 0
148 145 -141 0
-148 145 141 0
-149 145 0
148 -149 -141 0
-148 -149 141 0
148 149 -145 141 0
-148 149 -145 -141 0
-150 145 0
148 -150 141 0
-148 -150 -141 0
148 150 -145 -141 0
-148 150 -145 141 0
-151 145 0
-151 141 0
-151 -148 0
151 148 -145 -141 0
152 63 -145 0
152 -63 145 0
-152 63 145 0
-152 -63 -145 0
153 146 -148 0
153 -146 148 0
-153 146 148 0
-153 -146 -148 0
-154 63 0
-154 148 0
-154 145 -146 0
-154 -145 146 0
154 -63 145 146 -148 0
154 -63 -145 -146 -148 0
155 63 -153 0
155 -63 153 0
-155 63 153 0
-155 -63 -153 0
-156 63 0
-156 153 0
156 -63 -153 0
157 -63 155 0
-157 63 155 0
-158 155 0
157 -158 -63 0
-157 -158 63 0
157 158 63 -155 0
-157 158 -63 -155 0
-159 155 0
157 -159 63 0
-157 -159 -63 0
157 159 -63 -155 0
-157 159 63 -155 0
-160 157 0
-160 155 0
-160 -63 0
160 -157 63 -155 0
161 157 -155 0
-161 157 155 0
-162 157 0
161 -162 -155 0
-161 -162 155 0
161 162 -157 155 0
-161 162 -157 -155 0
-163 157 0
161 -163 155 0
-161 -163 -155 0
161 163 -157 -155 0
-161 163 -157 155 0
-164 157 0
-164 155 0
-164 -161 0
164 161 -157 -155 0
165 -157 161 0
-165 157 161 0
-166 161 0
165 -166 -157 0
-165 -166 157 0
165 166 157 -161 0
-165 166 -157 -161 0
-167 161 0
165 -167 157 0
-165 -167 -157 0
165 167 -157 -161 0
-165 167 157 -161 0
-168 165 0
-168 161 0
-168 -157 0
168 -165 157 -161 0
169 165 -161 0
-169 165 161 0
-170 165 0
169 -170 -161 0
-169 -170 161 0
169 170 -165 161 0
-169 170 -165 -161 0
-171 165 0
169 -171 161 0
-169 -171 -161 0
169 171 -165 -161 0
-169 171 -165 161 0
-172 165 0
-172 161 0
-172 -169 0
172 169 -165 -161 0
173 124 -120 0
173 -124 120 0
-173 124 120 0
-173 -124 -120 0
-174 124 0
-174 120 0
174 -124 -120 0
175 -124 173 0
-175 124 173 0
-176 173 0
175 -176 -124 0
-175 -176 124 0
175 176 124 -173 0
-175 176 -124 -173 0
-177 173 0
175 -177 124 0
-175 -177 -124 0
175 177 -124 -173 0
-175 177 124 -173 0
-178 175 0
-178 173 0
-178 -124 0
178 -175 124 -173 0
179 175 -173 0
-179 175 173 0
-180 175 0
179 -180 -173 0
-179 -180 173 0
179 180 -175 173 0
-179 180 -175 -173 0
-181 175 0
179 -181 173 0
-179 -181 -173 0
179 181 -175 -173 0
-179 181 -175 173 0
-182 175 0
-182 173 0
-182 -179 0
182 179 -175 -173 0
183 -175 179 0
-183 175 179 0
-184 179 0
183 -184 -175 0
-183 -184 175 0
183 184 175 -179 0
-183 184 -175 -179 0
-185 179 0
183 -185 175 0
-183 -185 -175 0
183 185 -175 -179 0
-183 185 175 -179 0
-186 183 0
-186 179 0
-186 -175 0
186 -183 175 -179 0
187 183 -179 0
-187 183 179 0
-188 183 0
187 -188 -179 0
-187 -188 179 0
187 188 -183 179 0
-187 188 -183 -179 0
-189 183 0
187 -189 179 0
-187 -189 -179 0
187 189 -183 -179 0
-187 189 -183 179 0
-190 183 0
-190 179 0
-190 -187 0
190 187 -183 -179 0
191 114 -183 0
191 -114 183 0
-191 114 183 0
-191 -114 -183 0
192 110 -187 0
192 -110 187 0
-192 110 187 0
-192 -110 -187 0
-193 114 0
-193 187 0
-193 183 -110 0
-193 -183 110 0
193 -114 183 110 -187 0
193 -114 -183 -110 -187 0
194 191 -187 0
-194 191 187 0
-195 191 0
194 -195 -187 0
-194 -195 187 0
194 195 -191 187 0
-194 195 -191 -187 0
-196 191 0
194 -196 187 0
-194 -196 -187 0
194 196 -191 -187 0
-194 196 -191 187 0
-197 191 0
-197 187 0
-197 -194 0
197 194 -191 -187 0
198 114 -191 0
198 -114 191 0
-198 114 191 0
-198 -114 -191 0
199 192 -194 0
199 -192 194 0
-199 192 194 0
-199 -192 -194 0
-200 114 0
-200 194 0
-200 191 -192 0
-200 -191 192 0
200 -114 191 192 -194 0
200 -114 -191 -192 -194 0
201 114 -199 0
201 -114 199 0
-201 114 199 0
-201 -114 -199 0
-202 114 0
-202 199 0
202 -114 -199 0
203 -114 201 0
-203 114 201 0
-204 201 0
203 -204 -114 0
-203 -204 114 0
203 204 114 -201 0
-203 204 -114 -201 0
-205 201 0
203 -205 114 0
-203 -205 -114 0
203 205 -114 -201 0
-203 205 114 -201 0
-206 203 0
-206 201 0
-206 -114 0
206 -203 114 -201 0
207 203 -201 0
-207 203 201 0
-208 203 0
207 -208 -201 0
-207 -208 201 0
207 208 -203 201 0
-207 208 -203 -201 0
-209 203 0
207 -209 201 0
-207 -209 -201 0
207 209 -203 -201 0
-207 209 -203 201 0
-210 203 0
-210 201 0
-210 -207 0
210 207 -203 -201 0
211 -203 207 0
-211 203 207 0
-212 207 0
211 -212 -203 0
-211 -212 203 0
211 212 203 -207 0
-211 212 -203 -207 0
-213 207 0
211 -213 203 0
-211 -213 -203 0
211 213 -203 -207 0
-211 213 203 -207 0
-214 211 0
-214 207 0
-214 -203 0
214 -211 203 -207 0
215 211 -207 0
-215 211 207 0
-216 211 0
215 -216 -207 0
-215 -216 207 0
215 216 -211 207 0
-215 216 -211 -207 0
-217 211 0
215 -217 207 0
-215 -217 -207 0
215 217 -211 -207 0
-215 217 -211 207 0
-218 211 0
-218 207 0
-218 -215 0
218 215 -211 -207 0
219 152 -198 0
219 -152 198 0
-219 152 198 0
-219 -152 -198 0
220 148 -194 0
220 -148 194 0
-220 148 194 0
-220 -148 -194 0
-221 152 0
-221 194 0
-221 198 -148 0
-221 -198 148 0
221 -152 198 148 -194 0
221 -152 -198 -148 -194 0
222 219 -194 0
-222 219 194 0
-223 219 0
222 -223 -194 0
-222 -223 194 0
222 223 -219 194 0
-222 223 -219 -194 0
-224 219 0
222 -224 194 0
-222 -224 -194 0
222 224 -219 -194 0
-222 224 -219 194 0
-225 219 0
-225 194 0
-225 -222 0
225 222 -219 -194 0
226 152 -219 0
226 -152 219 0
-226 152 219 0
-226 -152 -219 0
227 220 -222 0
227 -220 222 0
-227 220 222 0
-227 -220 -222 0
-228 152 0
-228 222 0
-228 219 -220 0
-228 -219 220 0
228 -152 219 220 -222 0
228 -152 -219 -220 -222 0
229 152 -227 0
229 -152 227 0
-229 152 227 0
-229 -152 -227 0
-230 152 0
-230 227 0
230 -152 -227 0
231 -152 229 0
-231 152 229 0
-232 229 0
231 -232 -152 0
-231 -232 152 0
231 232 152 -229 0
-231 232 -152 -229 0
-233 229 0
231 -233 152 0
-231 -233 -152 0
231 233 -152 -229 0
-231 233 152 -229 0
-234 231 0
-234 229 0
-234 -152 0
234 -231 152 -229 0
235 231 -229 0
-235 231 229 0
-236 231 0
235 -236 -229 0
-235 -236 229 0
235 236 -231 229 0
-235 236 -231 -229 0
-237 231 0
235 -237 229 0
-235 -237 -229 0
235 237 -231 -229 0
-235 237 -231 229 0
-238 231 0
-238 229 0
-238 -235 0
238 235 -231 -229 0
239 -231 235 0
-239 231 235 0
-240 235 0
239 -240 -231 0
-239 -240 231 0
239 240 231 -235 0
-239 240 -231 -235 0
-241 235 0
239 -241 231 0
-239 -241 -231 0
239 241 -231 -235 0
-239 241 231 -235 0
-242 239 0
-242 235 0
-242 -231 0
242 -239 231 -235 0
243 239 -235 0
-243 239 235 0
-244 239 0
243 -244 -235 0
-243 -244 235 0
243 244 -239 235 0
-243 244 -239 -235 0
-245 239 0
243 -245 235 0
-243 -245 -235 0
243 245 -239 -235 0
-243 245 -239 235 0
-246 239 0
-246 235 0
-246 -243 0
246 243 -239 -235 0
247 226 -222 0
247 -226 222 0
-247 226 222 0
-247 -226 -222 0
-248 226 0
-248 222 0
248 -226 -222 0
249 -226 247 0
-249 226 247 0
-250 247 0
249 -250 -226 0
-249 -250 226 0
249 250 226 -247 0
-249 250 -226 -247 0
-251 247 0
249 -251 226 0
-249 -251 -226 0
249 251 -226 -247 0
-249 251 226 -247 0
-252 249 0
-252 247 0
-252 -226 0
252 -249 226 -247 0
253 249 -247 0
-253 249 247 0
-254 249 0
253 -254 -247 0
-253 -254 247 0
253 254 -249 247 0
-253 254 -249 -247 0
-255 249 0
253 -255 247 0
-253 -255 -247 0
253 255 -249 -247 0
-253 255 -249 247 0
-256 249 0
-256 247 0
-256 -253 0
256 253 -249 -247 0
257 -249 253 0
-257 249 253 0
-258 253 0
257 -258 -249 0
-257 -258 249 0
257 258 249 -253 0
-257 258 -249 -253 0
-259 253 0
257 -259 249 0
-257 -259 -249 0
257 259 -249 -253 0
-257 259 249 -253 0
-260 257 0
-260 253 0
-260 -249 0
260 -257 249 -253 0
261 257 -253 0
-261 257 253 0
-262 257 0
261 -262 -253 0
-261 -262 253 0
261 262 -257 253 0
-261 262 -257 -253 0
-263 257 0
261 -263 253 0
-261 -263 -253 0
261 263 -257 -253 0
-261 263 -257 253 0
-264 257 0
-264 253 0
-264 -261 0
264 261 -257 -253 0
-165 0
-211 0
-215 0
-239 0
-243 0
-257 0
-261 0
